100
0   502   505
1   501   503
2   501   504
3   504   504
4   504   502
5   501   504
6   501   504
7   504   505
8   501   504
9   503   502
10   505   501
11   503   501
12   501   501
13   505   501
14   504   502
15   504   501
16   505   502
17   504   504
18   505   502
19   503   502
20   502   504
21   503   501
22   504   505
23   501   502
24   503   501
25   503   505
26   504   505
27   502   503
28   503   505
29   504   505
30   504   505
31   501   504
32   502   504
33   504   502
34   503   505
35   503   501
36   504   505
37   501   502
38   505   504
39   503   504
40   501   504
41   501   503
42   505   505
43   505   504
44   502   502
45   255   252
46   251   252
47   255   255
48   252   254
49   255   253
50   255   253
51   254   253
52   255   255
53   251   254
54   255   252
55   255   255
56   252   254
57   251   254
58   253   255
59   255   252
60   255   254
61   254   253
62   254   253
63   251   255
64   255   255
65   255   253
66   254   255
67   251   252
68   252   255
69   255   252
70   251   255
71   253   251
72   251   251
73   251   254
74   251   253
75   252   253
76   251   255
77   252   253
78   253   251
79   252   252
80   253   255
81   252   253
82   253   254
83   253   254
84   254   251
85   251   253
86   254   253
87   254   252
88   253   251
89   253   255
90   2   5
91   4   1
92   2   1
93   4   2
94   1   2
95   4   5
96   4   5
97   2   5
98   4   2
99   5   1
1000
